
Gurobi 11.0.1 (win64) logging started Tue May 14 18:55:23 2024

Set parameter LogFile to value "output/solver_log5.txt"
Gurobi Optimizer version 11.0.1 build v11.0.1rc0 (win64 - Windows 11.0 (22631.2))

CPU model: 11th Gen Intel(R) Core(TM) i7-1165G7 @ 2.80GHz, instruction set [SSE2|AVX|AVX2|AVX512]
Thread count: 4 physical cores, 8 logical processors, using up to 8 threads

Optimize a model with 1254 rows, 397 columns and 22901 nonzeros
Model fingerprint: 0x7318bbe5
Variable types: 88 continuous, 309 integer (309 binary)
Coefficient statistics:
  Matrix range     [4e-01, 1e+05]
  Objective range  [1e+00, 1e+02]
  Bounds range     [1e+00, 1e+00]
  RHS range        [1e-02, 1e+05]

User MIP start produced solution with objective 56358 (0.00s)
User MIP start produced solution with objective 56358 (0.00s)
Loaded user MIP start with objective 56358

Presolve removed 177 rows and 181 columns
Presolve time: 0.02s
Presolved: 1077 rows, 216 columns, 21443 nonzeros
Variable types: 81 continuous, 135 integer (133 binary)

Root relaxation: objective 5.685877e+04, 307 iterations, 0.01 seconds (0.02 work units)

    Nodes    |    Current Node    |     Objective Bounds      |     Work
 Expl Unexpl |  Obj  Depth IntInf | Incumbent    BestBd   Gap | It/Node Time

     0     0 56858.7710    0    3 56358.0207 56858.7710  0.89%     -    0s
     0     0 56858.7710    0    3 56358.0207 56858.7710  0.89%     -    0s
     0     2 56858.7710    0    3 56358.0207 56858.7710  0.89%     -    0s
H  607   323                    56858.771045 56858.7710  0.00%  55.7    0s

Explored 636 nodes (37114 simplex iterations) in 0.93 seconds (2.74 work units)
Thread count was 8 (of 8 available processors)

Solution count 3: 56858.8 56858.8 56358 

Optimal solution found (tolerance 1.00e-04)
Best objective 5.685877104468e+04, best bound 5.685877104468e+04, gap 0.0000%
